10	5
0	5	5	1	3	4	2
1	1	6
2	0
3	2	11	10
4	0
5	1	7
6	1	7
7	1	11
8	1	11
9	1	11
10	1	11
11	0
0	0	0	0	0	0	0
1	8	0	1	3	0	3
2	6	0	0	2	5	0
3	5	3	3	1	2	4
4	5	1	0	1	0	1
5	5	5	4	3	3	4
6	7	3	3	1	3	1
7	6	5	4	5	1	3
8	9	3	0	0	2	4
9	1	0	3	0	1	0
10	1	4	2	1	4	5
11	0	0	0	0	0	0
9	8	8	10	11
